4 55 417 1
1440 2000
    0            330      850   0      0  0 0      0     1440
    1            348      866  60    250  1 1 1  300     1320
    2            348      877  60    150  1 1 1  300      540
    3            337      858  60    300  1 1 1  300     1320
    4            324      870  60    224  1 1 1  300      540
    5            332      876  60    210  1 1 1  300     1320
    6            338      873  60    250  1 1 1  300     1320
    7            305      879  60    220  1 1 1  300     1320
    8            342      868  60    300  1 1 1  300      540
    9            318      866  60    180  1 1 1  300     1320
   10            330      859  60    190  1 1 1  300      540
   11            319      852  60    160  1 1 1  720     1080
   12            335      865  60    270  1 1 1  300     1320
   13            340      861  60    210  1 1 1  720     1080
   14            338      871  60    255  1 1 1  300     1320
   15            335      868  60    228  1 1 1  240      300
   16            334      866  60    220  1 1 1  720     1080
   17            310      873  60    165  1 1 1  300     1320
   18            344      857  60    215  1 1 1  300      540
   19            313      863  60    155  1 1 1  300     1320
   20            336      868  60    200  1 1 1  300      540
   21            344      869  60    210  1 1 1  300     1320
   22            343      865  60    220  1 1 1  240      300
   23            348      870  60    280  1 1 1  720     1080
   24            314      869  60    190  1 1 1  720     1080
   25            335      868  60    240  1 1 1  240      300
   26            331      854  60    265  1 1 1  300     1320
   27            342      862  60    230  1 1 1  300      540
   28            345      859  60    255  1 1 1  300     1320
   29            332      875  60    225  1 1 1  300     1320
   30            340      860  60    170  1 1 1  300      540
   31            348      870  60    165  1 1 1  300     1320
   32            347      877  60    200  1 1 1  300      540
   33            346      870  60    175  1 1 1  300     1320
   34            328      866  60    190  1 1 1  720     1080
   35            304      873  60    160  1 1 1  300     1320
   36            304      872  60    220  1 1 1  300     1320
   37            345      853  60    180  1 1 1  300     1320
   38            347      854  60    240  1 1 1  300     1320
   39            348      850  60    133  1 1 1  300     1320
   40            342      887  60    215  1 1 1  300     1320
   41            312      854  60    200  1 1 1  300     1320
   42            325      850  60    250  1 1 1  300     1320
   43            347      866  60    300  1 1 1  960     1080
   44            348      877  60    180  1 1 1  720     1080
   45            347      866  60    320  1 1 1  300     1320
   46            347      866  60    250  1 1 1  300      540
   47            347      866  60    250  1 1 1  240      300
   48            347      866  60    230  1 1 1  300     1320
   49            347      866  60    410  1 1 1  300     1320
   50            348      877  60    205  1 1 1  300      540
   51            337      858  60    340  1 1 1  300     1320
   52            332      875  60    325  1 1 1  960     1080
   53            323      863  60    215  1 1 1  300     1320
   54            324      863  60    195  1 1 1  300     1320
   55            348      877  60    275  1 1 1  300      540
   56            326      855  60    280  1 1 1  300     1320
   57            332      875  60    330  1 1 1  300     1320
   58            318      859  60    250  1 1 1  300     1320
   59            314      857  60    345  1 1 1  300     1320
   60            325      865  60    315  1 1 1  300      540
   61            324      863  60    330  1 1 1  300      540
   62            324      863  60    350  1 1 1  720     1080
   63            324      863  60    300  1 1 1  720     1080
   64            343      862  60    340  1 1 1  720     1080
   65            313      858  60    327  1 1 1  720     1080
   66            312      854  60    295  1 1 1  960     1080
   67            328      852  60    350  1 1 1  300      540
   68            307      882  60    290  1 1 1  960     1080
   69            307      881  60    245  1 1 1  300      540
   70            306      882  60    290  1 1 1  300     1320
   71            338      858  60    245  1 1 1  720     1080
   72            309      878  60    271  1 1 1  720     1080
   73            313      865  60    175  1 1 1  960     1080
   74            345      877  60    290  1 1 1  240      300
   75            311      871  60    280  1 1 1  300     1320
   76            304      877  60    255  1 1 1  240      300
   77            334      861  60    250  1 1 1  300     1320
   78            313      857  60    360  1 1 1  720     1080
   79            325      862  60    270  1 1 1  960     1080
   80            343      863  60    215  1 1 1  300     1320
   81            337      868  60    300  1 1 1  300     1320
   82            347      867  60    290  1 1 1  300     1320
   83            325      878  60    195  1 1 1  960     1080
   84            333      864  60    331  1 1 1  300      540
   85            334      870  60    250  1 1 1  960     1080
   86            335      869  60    315  1 1 1  720     1080
   87            324      863  60    380  1 1 1  300     1320
   88            336      866  60    355  1 1 1  300     1320
   89            315      879  60    345  1 1 1  960     1080
   90            332      868  60    280  1 1 1  300     1320
   91            346      870  60    335  1 1 1  300     1320
   92            325      859  60    330  1 1 1  300     1320
   93            329      871  60    282  1 1 1  300      540
   94            319      877  60    310  1 1 1  300     1320
   95            307      879  60    215  1 1 1  720     1080
   96            337      878  60    330  1 1 1  720     1080
   97            341      880  60    290  1 1 1  300     1320
   98            334      866  60    300  1 1 1  300     1320
   99            334      869  60    295  1 1 1  960     1080
  100            337      867  60    259  1 1 1  300     1320
  101            335      868  60    360  1 1 1  300      540
  102            308      881  60    260  1 1 1  300     1320
  103            347      870  60    268  1 1 1  720     1080
  104            310      875  60    285  1 1 1  300     1320
  105            346      870  60    380  1 1 1  300     1320
  106            314      861  60    220  1 1 1  300     1320
  107            326      855  60    226  1 1 1  300     1320
  108            336      868  60    290  1 1 1  300     1320
  109            347      860  60    330  1 1 1  300     1320
  110            338      858  60    175  1 1 1  300      540
  111            304      883  60    330  1 1 1  300     1320
  112            306      882  60    237  1 1 1  300     1320
  113            342      876  60    445  1 1 1  300      540
  114            307      881  60    245  1 1 1  300     1320
  115            324      863  60    350  1 1 1  300     1320
  116            340      860  60    265  1 1 1  300     1320
  117            310      859  60    305  1 1 1  300     1320
  118            332      863  60    220  1 1 1  300     1320
  119            336      868  60    331  1 1 1  720     1080
  120            316      852  60    257  1 1 1  720     1080
  121            336      864  60    360  1 1 1  960     1080
  122            339      864  60    380  1 1 1  240      300
  123            313      854  60    360  1 1 1  240      300
  124            342      857  60    277  1 1 1  300     1320
  125            324      863  60    400  1 1 1  300     1320
  126            324      863  60    310  1 1 1  300     1320
  127            337      858  60    255  1 1 1  300      540
  128            337      858  60    366  1 1 1  300      540
  129            328      858  60    335  1 1 1  300     1320
  130            317      863  60    235  1 1 1  300     1320
  131            323      863  60    360  1 1 1  960     1080
  132            326      854  60    325  1 1 1  720     1080
  133            310      863  60    219  1 1 1  300     1320
  134            339      878  60    360  1 1 1  300     1320
  135            321      857  60    265  1 1 1  300     1320
  136            331      868  60    270  1 1 1  960     1080
  137            350      858  60    240  1 1 1  720     1080
  138            331      868  60    380  1 1 1  960     1080
  139            314      853  60    275  1 1 1  300      540
  140            317      858  60    250  1 1 1  960     1080
  141            326      874  60    260  1 1 1  300      540
  142            339      856  60    260  1 1 1  960     1080
  143            347      860  60    250  1 1 1  300     1320
  144            329      852  60    250  1 1 1  240      300
  145            350      910  60    250  1 1 1  300      540
  146            308      852  60    230  1 1 1  720     1080
  147            305      865  60    460  1 1 1  300     1320
  148            304      872  60    265  1 1 1  300     1320
  149            307      861  60    315  1 1 1  960     1080
  150            306      871  60    290  1 1 1  300     1320
  151            304      872  60    225  1 1 1  300      540
  152            309      857  60    400  1 1 1  300     1320
  153            304      865  60    225  1 1 1  300     1320
  154            304      872  60    290  1 1 1  720     1080
  155            306      866  60    465  1 1 1  720     1080
  156            303      856  60    185  1 1 1  300     1320
  157            302      856  60    180  1 1 1  300      540
  158            298      853  60    220  1 1 1  300     1320
  159            302      858  60    160  1 1 1  240      300
  160            307      848  60    300  1 1 1  300     1320
  161            304      850  60    300  1 1 1  300      540
  162            302      856  60    185  1 1 1  300      540
  163            302      856  60    221  1 1 1  300      540
  164            306      866  60    215  1 1 1  240      300
  165            308      866  60    430  1 1 1  240      300
  166            304      866  60    350  1 1 1  960     1080
  167            302      858  60    100  1 1 1  960     1080
  168            304      872  60    245  1 1 1  720     1080
  169            297      850  60    250  1 1 1  300     1320
  170            310      855  60    315  1 1 1  300     1320
  171            304      872  60    300  1 1 1  960     1080
  172            304      872  60    265  1 1 1  300     1320
  173            332      843  60    240  1 1 1  300     1320
  174            326      837  60    165  1 1 1  300      540
  175            330      850  60    220  1 1 1  300     1320
  176            321      842  60    171  1 1 1  300     1320
  177            320      838  60    155  1 1 1  300     1320
  178            326      839  60    190  1 1 1  240      300
  179            325      849  60    325  1 1 1  300     1320
  180            325      837  60    160  1 1 1  240      300
  181            323      835  60    215  1 1 1  300     1320
  182            334      848  60    165  1 1 1  300      540
  183            336      851  60    150  1 1 1  300     1320
  184            314      849  60    240  1 1 1  720     1080
  185            337      840  60    145  1 1 1  960     1080
  186            340      834  60    325  1 1 1  720     1080
  187            339      845  60    200  1 1 1  300     1320
  188            326      837  60    315  1 1 1  300     1320
  189            331      842  60    190  1 1 1  300     1320
  190            337      843  60    200  1 1 1  720     1080
  191            324      834  60    305  1 1 1  300     1320
  192            339      845  60    206  1 1 1  300      540
  193            339      845  60    220  1 1 1  300      540
  194            336      844  60    250  1 1 1  720     1080
  195            337      847  60    130  1 1 1  240      300
  196            337      844  60    176  1 1 1  300     1320
  197            338      841  60    168  1 1 1  300     1320
  198            339      840  60    200  1 1 1  300     1320
  199            338      838  60    340  1 1 1  300     1320
  200            338      842  60    204  1 1 1  300     1320
  201            318      844  60    210  1 1 1  720     1080
  202            339      842  60    150  1 1 1  960     1080
  203            343      852  60    200  1 1 1  300     1320
  204            338      843  60    200  1 1 1  300      540
  205            332      843  60    245  1 1 1  300     1320
  206            338      844  60    250  1 1 1  300     1320
  207            337      843  60    250  1 1 1  300     1320
  208            338      841  60    300  1 1 1  300     1320
  209            338      841  60    220  1 1 1  300     1320
  210            339      842  60    150  1 1 1  300     1320
  211            342      835  60    285  1 1 1  300      540
  212            338      842  60    180  1 1 1  300      540
  213            337      843  60    166  1 1 1  240      300
  214            338      846  60    200  1 1 1  300     1320
  215            340      834  60    205  1 1 1  240      300
  216            341      840  60    340  1 1 1  720     1080
  217            338      844  60    190  1 1 1  300     1320
  218            329      846  60    260  1 1 1  720     1080
  219            337      842  60    150  1 1 1  300     1320
  220            338      844  60    205  1 1 1  300     1320
  221            325      849  60    200  1 1 1  720     1080
  222            337      839  60    215  1 1 1  960     1080
  223            330      839  60    211  1 1 1  300      540
  224            329      843  60    245  1 1 1  720     1080
  225            337      847  60    250  1 1 1  300     1320
  226            339      845  60    179  1 1 1  240      300
  227            337      844  60    250  1 1 1  300      540
  228            334      848  60    260  1 1 1  300     1320
  229            335      844  60    242  1 1 1  960     1080
  230            321      842  60    155  1 1 1  720     1080
  231            337      840  60    140  1 1 1  300     1320
  232            337      841  60    178  1 1 1  300      540
  233            339      845  60    405  1 1 1  960     1080
  234            339      845  60    250  1 1 1  300     1320
  235            338      847  60    280  1 1 1  300      540
  236            339      842  60    250  1 1 1  300     1320
  237            339      842  60    220  1 1 1  720     1080
  238            338      842  60    200  1 1 1  240      300
  239            325      828  60    215  1 1 1  300     1320
  240            331      832  60    260  1 1 1  300     1320
  241            334      820  60    240  1 1 1  300      540
  242            335      825  60    270  1 1 1  300     1320
  243            335      820  60    170  1 1 1  720     1080
  244            334      819  60    289  1 1 1  300     1320
  245            328      836  60    275  1 1 1  240      300
  246            328      837  60    230  1 1 1  300     1320
  247            328      837  60    220  1 1 1  300     1320
  248            338      847  60    275  1 1 1  300     1320
  249            350      852  60    240  1 1 1  300     1320
  250            334      820  60    250  1 1 1  300      540
  251            334      819  60    245  1 1 1  720     1080
  252            348      848  60    250  1 1 1  300     1320
  253            335      820  60    232  1 1 1  300      540
  254            343      838  60    325  1 1 1  720     1080
  255            341      845  60    265  1 1 1  720     1080
  256            344      829  60    260  1 1 1  720     1080
  257            328      837  60    245  1 1 1  300     1320
  258            322      831  60    230  1 1 1  300     1320
  259            343      838  60    274  1 1 1  300     1320
  260            342      845  60    240  1 1 1  300     1320
  261            333      840  60    315  1 1 1  300      540
  262            337      827  60    290  1 1 1  300     1320
  263            331      820  60    370  1 1 1  240      300
  264            341      843  60    423  1 1 1  300      540
  265            346      838  60    280  1 1 1  960     1080
  266            326      837  60    300  1 1 1  300     1320
  267            333      846  60    365  1 1 1  300     1320
  268            343      852  60    160  1 1 1  300     1320
  269            327      838  60    300  1 1 1  240      300
  270            341      847  60    350  1 1 1  240      300
  271            342      839  60    455  1 1 1  720     1080
  272            323      840  60    220  1 1 1  720     1080
  273            325      829  60    230  1 1 1  300     1320
  274            340      840  60    260  1 1 1  300     1320
  275            328      837  60    340  1 1 1  300     1320
  276            341      847  60    265  1 1 1  300     1320
  277            330      824  60    300  1 1 1  720     1080
  278            310      849  60    280  1 1 1  300     1320
  279            341      836  60    400  1 1 1  300      540
  280            337      851  60    275  1 1 1  300     1320
  281            334      845  60    128  1 1 1  240      300
  282            318      848  60    250  1 1 1  240      300
  283            345      844  60    285  1 1 1  240      300
  284            335      842  60    290  1 1 1  300     1320
  285            326      842  60    250  1 1 1  240      300
  286            333      834  60    315  1 1 1  960     1080
  287            347      845  60    390  1 1 1  720     1080
  288            342      848  60    250  1 1 1  720     1080
  289            337      843  60    230  1 1 1  300     1320
  290            338      842  60    200  1 1 1  240      300
  291            336      839  60    250  1 1 1  300     1320
  292            340      850  60    240  1 1 1  300     1320
  293            336      844  60    200  1 1 1  720     1080
  294            335      853  60    275  1 1 1  300     1320
  295            343      831  60    275  1 1 1  240      300
  296            316      842  60    250  1 1 1  300     1320
  297            349      840  60    200  1 1 1  720     1080
  298            350      853  60    165  1 1 1  240      300
  299            345      840  60    250  1 1 1  300      540
  300            339      847  60    300  1 1 1  300      540
  301            341      828  60    195  1 1 1  720     1080
  302            349      834  60    255  1 1 1  300     1320
  303            329      852  60    250  1 1 1  300     1320
  304            329      848  60    190  1 1 1  240      300
  305            335      820  60    290  1 1 1  720     1080
  306            334      820  60    375  1 1 1  300     1320
  307            340      843  60    250  1 1 1  300      540
  308            337      849  60    300  1 1 1  960     1080
  309            345      835  60    180  1 1 1  300     1320
  310            332      849  60    265  1 1 1  300     1320
  311            345      840  60    220  1 1 1  300     1320
  312            336      835  60    200  1 1 1  300     1320
  313            344      849  60    250  1 1 1  300     1320
  314            345      849  60    322  1 1 1  240      300
  315            325      849  60    295  1 1 1  300     1320
  316            325      849  60    430  1 1 1  300     1320
  317            334      817  60    250  1 1 1  720     1080
  318            335      820  60    250  1 1 1  720     1080
  319            299      901  60    180  1 1 1  720     1080
  320            325      921  60    250  1 1 1  300     1320
  321            299      901  60    250  1 1 1  300     1320
  322            308      899  60    220  1 1 1  720     1080
  323            302      933  60    250  1 1 1  300      540
  324            305      911  60    250  1 1 1  240      300
  325            303      933  60    164  1 1 1  300     1320
  326            304      909  60    100  1 1 1  720     1080
  327            302      932  60    200  1 1 1  300     1320
  328            302      932  60    200  1 1 1  300     1320
  329            300      902  60    170  1 1 1  300     1320
  330            303      898  60    140  1 1 1  300     1320
  331            336      884  60    335  1 1 1  960     1080
  332            334      910  60    295  1 1 1  300     1320
  333            325      887  60    235  1 1 1  300     1320
  334            317      891  60    181  1 1 1  300     1320
  335            313      893  60    250  1 1 1  300     1320
  336            304      885  60    313  1 1 1  300      540
  337            304      887  60    290  1 1 1  300     1320
  338            304      886  60    260  1 1 1  720     1080
  339            304      889  60    300  1 1 1  300      540
  340            304      889  60    245  1 1 1  960     1080
  341            317      886  60    380  1 1 1  240      300
  342            316      914  60    245  1 1 1  960     1080
  343            346      900  60    255  1 1 1  300     1320
  344            304      885  60    245  1 1 1  300     1320
  345            324      901  60    165  1 1 1  720     1080
  346            349      886  60    300  1 1 1  300     1320
  347            342      906  60    190  1 1 1  300     1320
  348            323      909  60    235  1 1 1  300      540
  349            335      888  60    240  1 1 1  960     1080
  350            334      884  60    410  1 1 1  300     1320
  351            317      891  60    190  1 1 1  300     1320
  352            312      905  60    270  1 1 1  300     1320
  353            340      885  60    315  1 1 1  240      300
  354            304      891  60    240  1 1 1  300      540
  355            325      887  60    265  1 1 1  720     1080
  356            304      891  60    290  1 1 1  300     1320
  357            342      887  60    290  1 1 1  240      300
  358            305      897  60    600  1 1 1  720     1080
  359            342      887  60    270  1 1 1  300     1320
  360            323      892  60    185  1 1 1  720     1080
  361            323      902  60    320  1 1 1  720     1080
  362            304      891  60    225  1 1 1  720     1080
  363            354      846  60    250  1 1 1  720     1080
  364            351      849  60    210  1 1 1  300     1320
  365            354      862  60    415  1 1 1  300     1320
  366            356      870  60    262  1 1 1  300     1320
  367            351      849  60    135  1 1 1  720     1080
  368            355      865  60    350  1 1 1  300     1320
  369            354      846  60    260  1 1 1  300     1320
  370            355      850  60    235  1 1 1  720     1080
  371            350      852  60    205  1 1 1  300     1320
  372            350      852  60    195  1 1 1  240      300
  373            356      845  60    190  1 1 1  300     1320
  374            351      849  60    190  1 1 1  240      300
  375            350      852  60    150  1 1 1  300     1320
  376            353      852  60    250  1 1 1  720     1080
  377            351      849  60    300  1 1 1  240      300
  378            352      866  60    330  1 1 1  300     1320
  379            352      870  60    261  1 1 1  300     1320
  380            350      857  60    273  1 1 1  300     1320
  381            353      845  60    280  1 1 1  300     1320
  382            358      843  60    205  1 1 1  300      540
  383            350      852  60    160  1 1 1  300     1320
  384            357      889  60    245  1 1 1  300     1320
  385            355      868  60    370  1 1 1  300     1320
  386            355      844  60    375  1 1 1  300     1320
  387            350      853  60    310  1 1 1  720     1080
  388            357      884  60    315  1 1 1  300     1320
  389            352      858  60    265  1 1 1  300     1320
  390            352      882  60    250  1 1 1  300     1320
  391            356      870  60    430  1 1 1  240      300
  392            356      893  60    305  1 1 1  300     1320
  393            351      900  60    215  1 1 1  720     1080
  394            352      900  60    235  1 1 1  300     1320
  395            351      900  60    150  1 1 1  240      300
  396            351      900  60    245  1 1 1  300     1320
  397            351      899  60    245  1 1 1  300      540
  398            360      894  60    265  1 1 1  720     1080
  399            357      843  60    200  1 1 1  300     1320
  400            354      854  60    205  1 1 1  300     1320
  401            350      852  60    140  1 1 1  300     1320
  402            352      861  60    375  1 1 1  300     1320
  403            351      900  60    138  1 1 1  300     1320
  404            350      897  60    235  1 1 1  300      540
  405            359      888  60    205  1 1 1  300     1320
  406            351      851  60    200  1 1 1  300     1320
  407            356      852  60    185  1 1 1  240      300
  408            353      890  60    220  1 1 1  300     1320
  409            351      900  60    250  1 1 1  300      540
  410            351      853  60    160  1 1 1  720     1080
  411            354      846  60    250  1 1 1  300     1320
  412            354      846  60    280  1 1 1  300     1320
  413            351      900  60   1000  1 1 1  960     1080
  414            350      852  60    250  1 1 1  720     1080
  415            342      868  60     67  1 1 1  300     1320
  416            346      870  60    119  1 1 1  240      300
  417            346      870  60    125  1 1 1  300     1320
